Route #1: 42 47 26 21 35 16 52 1 27
Route #2: 19 18 10 40 44 51 14 17 8 28 15
Route #3: 13 33 11 55 20 31 2 30 54 34
Route #4: 43 23 22 50 38 9 12 5
Route #5: 25 46 6 53 24 45
Route #6: 39 4 7 37 29 41
Route #7: 48 32 49 36 3
cost 775.337890625